(declare-fun e () String)
(declare-fun c () String)
(declare-fun g () String)
(declare-fun b () String)
(declare-fun d () String)
(declare-fun f () String)
(declare-fun a () String)
(declare-fun h () String)
(assert (= "hadeb" (str.++ e "ccbc" b)))
(assert (= d "f"))
(assert (= (str.++ "g" b f g "c" f) (str.++ d c a h)))

(check-sat)
